NAME: test54
TYPE: TSP
DIMENSION: 15
EDGE_WEIGHT_TYPE: EUC_2D
NODE_COORD_SECTION
1 78.99341660763676 97.96343923066624
2 30.9814479223435 5.970396278676238
3 79.5337755636735 87.04466324189772
4 38.182638367194514 4.738953130678725
5 7.065248375284616 39.65224417564567
6 82.25966917665764 57.148263976794034
7 67.14820158671641 48.56667901677879
8 52.45713718509809 42.86223644154652
9 24.092418485597932 43.816487280562434
10 94.64331994993096 11.162846185497743
11 48.1540445467853 13.925202734665465
12 91.7706079121025 30.212351077229094
13 79.43327267172229 89.19416588042017
14 67.7548004422141 78.03852874313112
15 51.723430075503444 21.590375890655146
EOF
